instances/trivial/instancia_trivial.dat
param sigma :
    1       2 :=
1   0.00001 0.99999
2   0.1 0.9
3   0.2 0.8
4   0.3 0.7
5   0.4 0.6
6   0.5 0.5
7   0.6 0.4
8   0.7 0.3
9   0.8 0.2
10   0.9 0.1
11   0.99999 0.00001
;

set P := 1 2;
set M := 1 2;
set O := 1 2;

param cost :=
# p m o cost
1 1 1 22   1 1 2 32   1 2 1 21   1 2 2 50   2 1 1 8
2 1 2 27   2 2 1 44   2 2 2 20   
;

param time_ :=
# p m o time
1 1 1 37   1 1 2 130   1 2 1 187   1 2 2 144   2 1 1 148
2 1 2 167   2 2 1 184   2 2 2 24   
;
