instances/trivial/instancia_trivial.txt
2 2 2

22 32 21 50 
8 27 44 20 

37 130 187 144 
148 167 184 24 
